/* Objective function */
Min: 0.00221x1 + 0.000882x2;


/* Constraints */
x1 + x2 >=10000;
5x1 >=6x2;
0.015x1 +0.02 x2 >= 180;
0.000003x1 + 0.000012 x2 >=0.080;
0.00012x1 + 0.0001x2 >=1.050;

x1>=0;
x2>=0;

